c Generated by CellRouter, look at JSON variable remapping
p cnf 100 650
19 0 
87 0 
-2 -44 -19 0 
2 44 -19 0 
2 -44 19 0 
-2 44 19 0 
-80 -7 -48 0 
80 7 -48 0 
80 -7 48 0 
-80 7 48 0 
-76 -92 -4 0 
-100 -92 -4 0 
-100 -76 -4 0 
-100 -76 -92 0 
100 76 92 -4 0 
100 76 -92 4 0 
100 -76 92 4 0 
-100 76 92 4 0 
-17 -59 -90 0 
-93 -59 -90 0 
-93 -17 -90 0 
-93 -17 -59 0 
93 17 59 -90 0 
93 17 -59 90 0 
93 -17 59 90 0 
-93 17 59 90 0 
-11 -93 -86 0 
-6 -93 -86 0 
-6 -11 -86 0 
-6 -11 -93 0 
6 11 93 -86 0 
6 11 -93 86 0 
6 -11 93 86 0 
-6 11 93 86 0 
-30 -40 -73 0 
30 40 -73 0 
30 -40 73 0 
-30 40 73 0 
-46 -5 -84 0 
-3 -5 -84 0 
-3 -46 -84 0 
-3 -46 -5 0 
3 46 5 -84 0 
3 46 -5 84 0 
3 -46 5 84 0 
-3 46 5 84 0 
-34 -82 -42 0 
-52 -82 -42 0 
-52 -34 -42 0 
-52 -34 -82 0 
52 34 82 -42 0 
52 34 -82 42 0 
52 -34 82 42 0 
-52 34 82 42 0 
-6 -86 -29 0 
-66 -86 -29 0 
-66 -6 -29 0 
-66 -6 -86 0 
66 6 86 -29 0 
66 6 -86 29 0 
66 -6 86 29 0 
-66 6 86 29 0 
-61 -41 -91 0 
-24 -41 -91 0 
-24 -61 -91 0 
-24 -61 -41 0 
24 61 41 -91 0 
24 61 -41 91 0 
24 -61 41 91 0 
-24 61 41 91 0 
-48 -10 -22 0 
48 10 -22 0 
48 -10 22 0 
-48 10 22 0 
-68 -43 -83 0 
68 43 -83 0 
68 -43 83 0 
-68 43 83 0 
-82 -58 -78 0 
82 58 -78 0 
82 -58 78 0 
-82 58 78 0 
-90 -51 -26 0 
-81 -51 -26 0 
-81 -90 -26 0 
-81 -90 -51 0 
81 90 51 -26 0 
81 90 -51 26 0 
81 -90 51 26 0 
-81 90 51 26 0 
-97 -71 -43 0 
-68 -71 -43 0 
-68 -97 -43 0 
-68 -97 -71 0 
68 97 71 -43 0 
68 97 -71 43 0 
68 -97 71 43 0 
-68 97 71 43 0 
-3 -84 -25 0 
-41 -84 -25 0 
-41 -3 -25 0 
-41 -3 -84 0 
41 3 84 -25 0 
41 3 -84 25 0 
41 -3 84 25 0 
-41 3 84 25 0 
-39 -64 -35 0 
39 64 -35 0 
39 -64 35 0 
-39 64 35 0 
-21 -66 -38 0 
-89 -66 -38 0 
-89 -21 -38 0 
-89 -21 -66 0 
89 21 66 -38 0 
89 21 -66 38 0 
89 -21 66 38 0 
-89 21 66 38 0 
-79 -53 -13 0 
-15 -53 -13 0 
-15 -79 -13 0 
-15 -79 -53 0 
15 79 53 -13 0 
15 79 -53 13 0 
15 -79 53 13 0 
-15 79 53 13 0 
-26 -51 -58 0 
26 51 -58 0 
26 -51 58 0 
-26 51 58 0 
-53 -60 -37 0 
-13 -60 -37 0 
-13 -53 -37 0 
-13 -53 -60 0 
13 53 60 -37 0 
13 53 -60 37 0 
13 -53 60 37 0 
-13 53 60 37 0 
-12 -23 -36 0 
12 23 -36 0 
12 -23 36 0 
-12 23 36 0 
-31 -85 -23 0 
-10 -85 -23 0 
-10 -31 -23 0 
-10 -31 -85 0 
10 31 85 -23 0 
10 31 -85 23 0 
10 -31 85 23 0 
-10 31 85 23 0 
22 -12 0 
-22 12 0 
-82 -78 -44 0 
-42 -78 -44 0 
-42 -82 -44 0 
-42 -82 -78 0 
42 82 78 -44 0 
42 82 -78 44 0 
42 -82 78 44 0 
-42 82 78 44 0 
-4 -57 -54 0 
-85 -57 -54 0 
-85 -4 -54 0 
-85 -4 -57 0 
85 4 57 -54 0 
85 4 -57 54 0 
85 -4 57 54 0 
-85 4 57 54 0 
-1 -50 -55 0 
-14 -50 -55 0 
-14 -1 -55 0 
-14 -1 -50 0 
14 1 50 -55 0 
14 1 -50 55 0 
14 -1 50 55 0 
-14 1 50 55 0 
16 95 0 
-16 -95 0 
-20 -73 -95 0 
20 73 -95 0 
20 -73 95 0 
-20 73 95 0 
-8 -14 -62 0 
-32 -14 -62 0 
-32 -8 -62 0 
-32 -8 -14 0 
32 8 14 -62 0 
32 8 -14 62 0 
32 -8 14 62 0 
-32 8 14 62 0 
-96 -63 -21 0 
96 63 -21 0 
96 -63 21 0 
-96 63 21 0 
-63 -6 -66 0 
-21 -6 -66 0 
-21 -63 -66 0 
-21 -63 -6 0 
21 63 6 -66 0 
21 63 -6 66 0 
21 -63 6 66 0 
-21 63 6 66 0 
-24 -91 -50 0 
-1 -91 -50 0 
-1 -24 -50 0 
-1 -24 -91 0 
1 24 91 -50 0 
1 24 -91 50 0 
1 -24 91 50 0 
-1 24 91 50 0 
-41 -25 -98 0 
-91 -25 -98 0 
-91 -41 -98 0 
-91 -41 -25 0 
91 41 25 -98 0 
91 41 -25 98 0 
91 -41 25 98 0 
-91 41 25 98 0 
-92 -52 -57 0 
-4 -52 -57 0 
-4 -92 -57 0 
-4 -92 -52 0 
4 92 52 -57 0 
4 92 -52 57 0 
4 -92 52 57 0 
-4 92 52 57 0 
-93 -90 -81 0 
-86 -90 -81 0 
-86 -93 -81 0 
-86 -93 -90 0 
86 93 90 -81 0 
86 93 -90 81 0 
86 -93 90 81 0 
-86 93 90 81 0 
-18 -94 -46 0 
18 94 -46 0 
18 -94 46 0 
-18 94 46 0 
-43 -27 -8 0 
-83 -27 -8 0 
-83 -43 -8 0 
-83 -43 -27 0 
83 43 27 -8 0 
83 43 -27 8 0 
83 -43 27 8 0 
-83 43 27 8 0 
-84 -5 -40 0 
84 5 -40 0 
84 -5 40 0 
-84 5 40 0 
-57 -74 -65 0 
-54 -74 -65 0 
-54 -57 -65 0 
-54 -57 -74 0 
54 57 74 -65 0 
54 57 -74 65 0 
54 -57 74 65 0 
-54 57 74 65 0 
-63 -11 -6 0 
63 11 -6 0 
63 -11 6 0 
-63 11 6 0 
-14 -55 -70 0 
-62 -55 -70 0 
-62 -14 -70 0 
-62 -14 -55 0 
62 14 55 -70 0 
62 14 -55 70 0 
62 -14 55 70 0 
-62 14 55 70 0 
-27 -1 -14 0 
-8 -1 -14 0 
-8 -27 -14 0 
-8 -27 -1 0 
8 27 1 -14 0 
8 27 -1 14 0 
8 -27 1 14 0 
-8 27 1 14 0 
-85 -54 -36 0 
-23 -54 -36 0 
-23 -85 -36 0 
-23 -85 -54 0 
23 85 54 -36 0 
23 85 -54 36 0 
23 -85 54 36 0 
-23 85 54 36 0 
-71 -99 -27 0 
-43 -99 -27 0 
-43 -71 -27 0 
-43 -71 -99 0 
43 71 99 -27 0 
43 71 -99 27 0 
43 -71 99 27 0 
-43 71 99 27 0 
-26 -58 -82 0 
-34 -58 -82 0 
-34 -26 -82 0 
-34 -26 -58 0 
34 26 58 -82 0 
34 26 -58 82 0 
34 -26 58 82 0 
-34 26 58 82 0 
-9 -18 -45 0 
9 18 -45 0 
9 -18 45 0 
-9 18 45 0 
-29 -67 -92 0 
-76 -67 -92 0 
-76 -29 -92 0 
-76 -29 -67 0 
76 29 67 -92 0 
76 29 -67 92 0 
76 -29 67 92 0 
-76 29 67 92 0 
-84 -40 -30 0 
-25 -40 -30 0 
-25 -84 -30 0 
-25 -84 -40 0 
25 84 40 -30 0 
25 84 -40 30 0 
25 -84 40 30 0 
-25 84 40 30 0 
-36 -54 -65 0 
36 54 -65 0 
36 -54 65 0 
-36 54 65 0 
-86 -81 -67 0 
-29 -81 -67 0 
-29 -86 -67 0 
-29 -86 -81 0 
29 86 81 -67 0 
29 86 -81 67 0 
29 -86 81 67 0 
-29 86 81 67 0 
-65 -74 -2 0 
65 74 -2 0 
65 -74 2 0 
-65 74 2 0 
-62 -70 -56 0 
-88 -70 -56 0 
-88 -62 -56 0 
-88 -62 -70 0 
88 62 70 -56 0 
88 62 -70 56 0 
88 -62 70 56 0 
-88 62 70 56 0 
-46 -94 -5 0 
46 94 -5 0 
46 -94 5 0 
-46 94 5 0 
-30 -73 -20 0 
-75 -73 -20 0 
-75 -30 -20 0 
-75 -30 -73 0 
75 30 73 -20 0 
75 30 -73 20 0 
75 -30 73 20 0 
-75 30 73 20 0 
97 68 0 
-97 -68 0 
-87 -96 -72 0 
87 96 -72 0 
87 -96 72 0 
-87 96 72 0 
-7 -31 -10 0 
-48 -31 -10 0 
-48 -7 -10 0 
-48 -7 -31 0 
48 7 31 -10 0 
48 7 -31 10 0 
48 -7 31 10 0 
-48 7 31 10 0 
-20 -95 -16 0 
-60 -95 -16 0 
-60 -20 -16 0 
-60 -20 -95 0 
60 20 95 -16 0 
60 20 -95 16 0 
60 -20 95 16 0 
-60 20 95 16 0 
-28 -61 -24 0 
-99 -61 -24 0 
-99 -28 -24 0 
-99 -28 -61 0 
99 28 61 -24 0 
99 28 -61 24 0 
99 -28 61 24 0 
-99 28 61 24 0 
-69 -56 -39 0 
69 56 -39 0 
69 -56 39 0 
-69 56 39 0 
-90 -59 -51 0 
90 59 -51 0 
90 -59 51 0 
-90 59 51 0 
-25 -30 -75 0 
-98 -30 -75 0 
-98 -25 -75 0 
-98 -25 -30 0 
98 25 30 -75 0 
98 25 -30 75 0 
98 -25 30 75 0 
-98 25 30 75 0 
-75 -20 -60 0 
-53 -20 -60 0 
-53 -75 -60 0 
-53 -75 -20 0 
53 75 20 -60 0 
53 75 -20 60 0 
53 -75 20 60 0 
-53 75 20 60 0 
-100 -4 -85 0 
-31 -4 -85 0 
-31 -100 -85 0 
-31 -100 -4 0 
31 100 4 -85 0 
31 100 -4 85 0 
31 -100 4 85 0 
-31 100 4 85 0 
-32 -62 -88 0 
32 62 -88 0 
32 -62 88 0 
-32 62 88 0 
-35 -13 -37 0 
35 13 -37 0 
35 -13 37 0 
-35 13 37 0 
-15 -13 -35 0 
-64 -13 -35 0 
-64 -15 -35 0 
-64 -15 -13 0 
64 15 13 -35 0 
64 15 -13 35 0 
64 -15 13 35 0 
-64 15 13 35 0 
-18 -46 -3 0 
-45 -46 -3 0 
-45 -18 -3 0 
-45 -18 -46 0 
45 18 46 -3 0 
45 18 -46 3 0 
45 -18 46 3 0 
-45 18 46 3 0 
-44 -78 -19 0 
44 78 -19 0 
44 -78 19 0 
-44 78 19 0 
-67 -34 -52 0 
-92 -34 -52 0 
-92 -67 -52 0 
-92 -67 -34 0 
92 67 34 -52 0 
92 67 -34 52 0 
92 -67 34 52 0 
-92 67 34 52 0 
-88 -56 -69 0 
88 56 -69 0 
88 -56 69 0 
-88 56 69 0 
-96 -21 -89 0 
-72 -21 -89 0 
-72 -96 -89 0 
-72 -96 -21 0 
72 96 21 -89 0 
72 96 -21 89 0 
72 -96 21 89 0 
-72 96 21 89 0 
-42 -44 -2 0 
-74 -44 -2 0 
-74 -42 -2 0 
-74 -42 -44 0 
74 42 44 -2 0 
74 42 -44 2 0 
74 -42 44 2 0 
-74 42 44 2 0 
-99 -24 -1 0 
-27 -24 -1 0 
-27 -99 -1 0 
-27 -99 -24 0 
27 99 24 -1 0 
27 99 -24 1 0 
27 -99 24 1 0 
-27 99 24 1 0 
-98 -75 -53 0 
-79 -75 -53 0 
-79 -98 -53 0 
-79 -98 -75 0 
79 98 75 -53 0 
79 98 -75 53 0 
79 -98 75 53 0 
-79 98 75 53 0 
-38 -76 -100 0 
-77 -76 -100 0 
-77 -38 -100 0 
-77 -38 -76 0 
77 38 76 -100 0 
77 38 -76 100 0 
77 -38 76 100 0 
-77 38 76 100 0 
-45 -3 -41 0 
-61 -3 -41 0 
-61 -45 -41 0 
-61 -45 -3 0 
61 45 3 -41 0 
61 45 -3 41 0 
61 -45 3 41 0 
-61 45 3 41 0 
-49 -47 -80 0 
49 47 -80 0 
49 -47 80 0 
-49 47 80 0 
-52 -42 -74 0 
-57 -42 -74 0 
-57 -52 -74 0 
-57 -52 -42 0 
57 52 42 -74 0 
57 52 -42 74 0 
57 -52 42 74 0 
-57 52 42 74 0 
-37 -60 -16 0 
37 60 -16 0 
37 -60 16 0 
-37 60 16 0 
-9 -45 -61 0 
-28 -45 -61 0 
-28 -9 -61 0 
-28 -9 -45 0 
28 9 45 -61 0 
28 9 -45 61 0 
28 -9 45 61 0 
-28 9 45 61 0 
-33 -9 -28 0 
33 9 -28 0 
33 -9 28 0 
-33 9 28 0 
-33 -28 -99 0 
-71 -28 -99 0 
-71 -33 -99 0 
-71 -33 -28 0 
71 33 28 -99 0 
71 33 -28 99 0 
71 -33 28 99 0 
-71 33 28 99 0 
-66 -29 -76 0 
-38 -29 -76 0 
-38 -66 -76 0 
-38 -66 -29 0 
38 66 29 -76 0 
38 66 -29 76 0 
38 -66 29 76 0 
-38 66 29 76 0 
17 -59 0 
-17 59 0 
-11 -17 -93 0 
11 17 -93 0 
11 -17 93 0 
-11 17 93 0 
-70 -64 -39 0 
-56 -64 -39 0 
-56 -70 -39 0 
-56 -70 -64 0 
56 70 64 -39 0 
56 70 -64 39 0 
56 -70 64 39 0 
-56 70 64 39 0 
-72 -89 -47 0 
-49 -89 -47 0 
-49 -72 -47 0 
-49 -72 -89 0 
49 72 89 -47 0 
49 72 -89 47 0 
49 -72 89 47 0 
-49 72 89 47 0 
-47 -77 -7 0 
-80 -77 -7 0 
-80 -47 -7 0 
-80 -47 -77 0 
80 47 77 -7 0 
80 47 -77 7 0 
80 -47 77 7 0 
-80 47 77 7 0 
-97 -33 -71 0 
97 33 -71 0 
97 -33 71 0 
-97 33 71 0 
-91 -98 -79 0 
-50 -98 -79 0 
-50 -91 -79 0 
-50 -91 -98 0 
50 91 98 -79 0 
50 91 -98 79 0 
50 -91 98 79 0 
-50 91 98 79 0 
-77 -100 -31 0 
-7 -100 -31 0 
-7 -77 -31 0 
-7 -77 -100 0 
7 77 100 -31 0 
7 77 -100 31 0 
7 -77 100 31 0 
-7 77 100 31 0 
-50 -79 -15 0 
-55 -79 -15 0 
-55 -50 -15 0 
-55 -50 -79 0 
55 50 79 -15 0 
55 50 -79 15 0 
55 -50 79 15 0 
-55 50 79 15 0 
-87 -72 -49 0 
87 72 -49 0 
87 -72 49 0 
-87 72 49 0 
-89 -38 -77 0 
-47 -38 -77 0 
-47 -89 -77 0 
-47 -89 -38 0 
47 89 38 -77 0 
47 89 -38 77 0 
47 -89 38 77 0 
-47 89 38 77 0 
-10 -23 -12 0 
-22 -23 -12 0 
-22 -10 -12 0 
-22 -10 -23 0 
22 10 23 -12 0 
22 10 -23 12 0 
22 -10 23 12 0 
-22 10 23 12 0 
-83 -8 -32 0 
83 8 -32 0 
83 -8 32 0 
-83 8 32 0 
-55 -15 -64 0 
-70 -15 -64 0 
-70 -55 -64 0 
-70 -55 -15 0 
70 55 15 -64 0 
70 55 -15 64 0 
70 -55 15 64 0 
-70 55 15 64 0 
-81 -26 -34 0 
-67 -26 -34 0 
-67 -81 -34 0 
-67 -81 -26 0 
67 81 26 -34 0 
67 81 -26 34 0 
67 -81 26 34 0 
-67 81 26 34 0 
